
  22   10
  10   10   10   10   10   10   10   10   10   10

   0   0   0   0   0   0   0   0   0   0   0   3 2 4 6 
   1   0   0   0   0   0   0  10   0   0   0   1 3 
   7   0   0   0   0  10   0   0   0   0   0   4 14 12 10 5 
   6   0   0  10   0   0   0   0   0   0   0   4 12 9 8 7 
   6   0   0   0   0  10   0   0   0   0   0   2 9 7 
   2   0   0   0   0   0   0   0  10   0   0   3 14 12 10 
   7   0   0  10   0   0   0   0   0   0   0   2 15 11 
   8   0   0   0   0  10   0   0   0   0   0   2 19 14 
   8   0   0   0  10   0   0   0   0   0   0   2 19 16 
   8   0   0   0   0   0   0   0   0   0  10   2 19 16 
   2   0   0   0   0   0  10   0   0   0   0   1 13 
   6   0   0   0   0   0   0  10   0   0   0   1 13 
   2  10   0   0   0   0   0   0   0   0   0   1 16 
   2   0   0   0   0   0  10   0   0   0   0   1 16 
   5  10   0   0   0   0   0   0   0   0   0   2 19 18 
   1   0   0  10   0   0   0   0   0   0   0   1 17 
   5   0   0  10   0   0   0   0   0   0   0   2 20 18 
   6   0  10   0   0   0   0   0   0   0   0   1 21 
   2  10   0   0   0   0   0   0   0   0   0   1 20 
   3   0   0   0   0   0  10   0   0   0   0   1 22
  10   0   0   0   0   0  10   0   0   0   0   1 22
   0   0   0   0   0   0   0   0   0   0   0   0 
